50
750 750
1 589 702
2 573 223
3 563 458
4 547 448
5 540 121
6 532 225
7 528 506
8 521 264
9 514 285
10 503 438
11 492 217
12 486 388
13 455 249
14 440 482
15 438 911
16 432 120
17 429 900
18 417 851
19 404 645
20 390 308
21 384 822
22 360 581
23 355 18
24 349 345
25 345 946
26 325 232
27 317 48
28 294 857
29 276 694
30 266 630
31 255 280
32 252 960
33 247 331
34 247 310
35 242 750
36 231 671
37 231 722
38 227 394
39 227 354
40 220 945
41 203 319
42 202 256
43 198 295
44 184 959
45 182 696
46 139 715
47 129 426
48 110 432
49 103 339
50 87 630
